instances/shortest_path/discrete/shortest_path_4_3.kp
35386
85

[6.168961450572892 1.6818247511109097 4.0514035426636 5.739187997933008 4.616991449404387 2.9177012462373577 3.4863870208778396 7.897794581280217 8.336342074998973 6.95563382563505]

[4 40 46 43 44 78 85 48 77 46]
